benchmarks_vrp/CMT1/fixed_c/CMT1_1.vrp
NAME: CMT1_1
TYPE: CVRP
COMMENT: 524.61 - Cluster Nr.1
DIMENSION: 6
CAPACITY: 160
EDGE_WEIGHT_TYPE: EUC_2D
NODE_COORD_TYPE: TWOD_COORDS
NODE_COORD_SECTION: 
2 31 62
4 30 40
3 37 52
1 37 69
5 43 67
6 42 57
DEPOT_SECTION: 
4
-1
DEMAND_SECTION: 
4 0
3 7
5 14
2 23
1 11
6 8
EOF
