benchmarks_vrp/CMT1/fixed_c/CMT1_1.tour
NAME: CMT1_1 solution
TYPE: TOUR
TOUR_SECTION:
4 2 1 5 6 3 -1
-1
EOF